 O Li Co  F  S  N  C                    
   1.00000000000000     
    16.9499447509299443    0.0058937000504963   -0.0434088738165042
    -0.0296715727828860   13.9897118404382219   -0.0182644650124657
     0.0009181325852237   -0.0175280202879438   26.9442818122840073
   O    Li   Co   F    S    N    C 
   124    60    60     6     2     1     2
Selective dynamics
Direct
  0.9042125597469450  0.0998401270375240  0.3769500244538264   F   F   F
  0.9083005051957613  0.8951547564671714  0.3786838983543390   F   F   F
  0.9060900545724664  0.2970555748810426  0.3783424094875514   F   F   F
  0.5710090745169936  0.9039349639638203  0.3788220557884827   F   F   F
  0.9111535591486160  0.6935718842192955  0.3796898101366111   F   F   F
  0.5748730367748394  0.7083715429653452  0.3791600939025344   F   F   F
  0.9105120233166488  0.4927481349342315  0.3797133906984342   F   F   F
  0.2387151488075432  0.2931531266987477  0.3787644119863742   F   F   F
  0.5751208740811649  0.3083235424311823  0.3797533885104798   F   F   F
  0.0859190302949031  0.1029331474943547  0.3790094875868846   F   F   F
  0.5742748278059864  0.1065929049132635  0.3799308620206006   F   F   F
  0.5790851182137473  0.5073882945254269  0.3803397431785740   F   F   F
  0.2439499120090289  0.0909421635095811  0.3797842792631982   F   F   F
  0.2435266693974754  0.4880996741348369  0.3803246435218881   F   F   F
  0.2431512588088367  0.8895901625520182  0.3805999840424406   F   F   F
  0.4209380373902718  0.4958647494372528  0.3808390658068532   F   F   F
  0.2463822878024757  0.6891736311621699  0.3808476597683494   F   F   F
  0.7538207431587978  0.7040529546289207  0.3875155250388929   F   F   F
  0.7507142529674766  0.9066485955956622  0.3878801380999306   F   F   F
  0.7566668362394608  0.4992816618515548  0.3889071168213647   F   F   F
  0.0878488446174615  0.6991438315375333  0.3883990798740555   F   F   F
  0.0894620636099432  0.4977352469601968  0.3885157477898957   F   F   F
  0.7508997904168382  0.1059977835459307  0.3893245696945513   F   F   F
  0.4167923375940177  0.2943320150559217  0.3889512544873597   F   F   F
  0.0858213106375700  0.9008662650594204  0.3888667689218721   F   F   F
  0.7545112396581644  0.3028964797126150  0.3898791308784197   F   F   F
  0.4171380173034507  0.0943325236197552  0.3897543786604629   F   F   F
  0.4216145683452908  0.6988938794774526  0.3903187976245945   F   F   F
  0.0839585575127515  0.3012244046724533  0.3897976111400183   F   F   F
  0.4173587243223480  0.8944116466839631  0.3916296427256114   F   F   F
  0.8262553664504040  0.8045683344605195  0.4598732343452809   F   F   F
  0.8268445139816549  0.6038053133343766  0.4602994221278252   F   F   F
  0.6727426893850890  0.6037695518092647  0.4603380092218003   F   F   F
  0.4922812736887607  0.3988769780922468  0.4599147721850656   F   F   F
  0.1607123236328931  0.0035465860381549  0.4591187432435291   F   F   F
  0.6715539942709157  0.8033424102804929  0.4605083045506007   F   F   F
  0.8257036543778824  0.0042003769353443  0.4602943246018825   F   F   F
  0.4935968877464205  0.5976098244134249  0.4605212745200831   F   F   F
  0.1579845710370122  0.1980749452533459  0.4599432485687700   F   F   F
  0.0019503632713054  0.0044355957277276  0.4599616235120720   F   F   F
  0.6712120433745525  0.2036414908578408  0.4612565112724099   F   F   F
  0.1626030098788291  0.7963600324587290  0.4608480761298708   F   F   F
  0.4924084411727208  0.1981357489311293  0.4609980408578451   F   F   F
  0.1607003503332294  0.5979866013737620  0.4608705988767383   F   F   F
  0.8259168752833332  0.2031420557524726  0.4620830880096420   F   F   F
  0.4932980111691023  0.9980035101632865  0.4617261201263787   F   F   F
  0.0050539223014141  0.3985655164180315  0.4614051617981261   F   F   F
  0.1590234789953087  0.3978140323443142  0.4621032397110696   F   F   F
  0.8263345591313183  0.4025161743897456  0.4632150429075850   F   F   F
  0.0030432957927715  0.7950892485718555  0.4626584105858527   F   F   F
  0.4932667313726640  0.7983260714916369  0.4635736285344407   F   F   F
  0.6703636296955224  0.0032723911946704  0.4647816998180971   F   F   F
  0.6722289534254813  0.4033935397087163  0.4652993546047810   F   F   F
  0.0058772934468720  0.5982459617106954  0.4646767990219942   F   F   F
  0.3381242043846200  0.1974854455580299  0.4652469565898514   F   F   F
  0.3386056237937893  0.3987185786155081  0.4660049890677982   F   F   F
  0.3395032469060268  0.5966348178046204  0.4665260376640177   F   F   F
  0.3383674584385616  0.9974530285906340  0.4664793707701662   F   F   F
  0.3392766496822333  0.7972005424680191  0.4670606062398974   F   F   F
  0.0036959814321804  0.1991586342516172  0.4662887392552264   F   F   F
  0.7444568436562093  0.9027158708400833  0.5325780869579546   F   F   F
  0.7445103938085182  0.7041228894959417  0.5331735220535663   F   F   F
  0.7435863774127327  0.5050475351804451  0.5336493220037468   F   F   F
  0.0776725671565899  0.9009463022643374  0.5328784640709756   F   F   F
  0.7439446245125296  0.1042022859309881  0.5336386564289413   F   F   F
  0.4109458810794280  0.2996410038643020  0.5335389490480651   F   F   F
  0.0811340570813783  0.6954849265605105  0.5332851849076548   F   F   F
  0.0767516756890316  0.4973371784328009  0.5332509971950898   F   F   F
  0.7432553520114809  0.3024134435703303  0.5345183447523425   F   F   F
  0.4116158991970948  0.0994453635812604  0.5343505805231032   F   F   F
  0.4115607757531450  0.6983472131490700  0.5350805899166389   F   F   F
  0.4116383663043095  0.9000282925798118  0.5355225134955930   F   F   F
  0.0772500084211956  0.2989183482717053  0.5347711334179905   F   F   F
  0.9235111574741097  0.4990572981999009  0.5377704528337759   F   F   F
  0.2564535621118864  0.2980712019139631  0.5367715113731606   F   F   F
  0.5902725062394083  0.5037782084319673  0.5374887872313465   F   F   F
  0.5899328741981122  0.3025748306429605  0.5376177243593148   F   F   F
  0.9219907517679999  0.6987261843876098  0.5389945201038415   F   F   F
  0.2567804098935014  0.8995714020538870  0.5389616161923527   F   F   F
  0.9231794038005035  0.0997162296485072  0.5396242590445652   F   F   F
  0.9205626349769531  0.9038703013238631  0.5402595696560155   F   F   F
  0.2573664323377542  0.6991969208288893  0.5390555937192261   F   F   F
  0.4106631121606981  0.4982262977242016  0.5393194924755207   F   F   F
  0.2561905684745014  0.0993681084886262  0.5388031494545658   F   F   F
  0.2563347414773034  0.4990812955576089  0.5391558601474955   F   F   F
  0.9228880349266717  0.2994862563762055  0.5401826383174892   F   F   F
  0.5906722361288530  0.9024159031595289  0.5401693545522406   F   F   F
  0.5897693867987712  0.1023109964004689  0.5398624884311758   F   F   F
  0.0769615534373216  0.0977162649520054  0.5392446776402053   F   F   F
  0.5908862288617698  0.7033054339978406  0.5410924436377655   F   F   F
  0.9972054175783285  0.5952213148570920  0.6091626756785402   T   T   T
  0.6689640971333546  0.0044522006836800  0.6087024431931454   T   T   T
  0.3311742704874376  0.2025390928076334  0.6091655505305837   T   T   T
  0.6612796507941994  0.4025352114942677  0.6099657117459500   T   T   T
  0.9973021832526499  0.1980081953678265  0.6112170669800037   T   T   T
  0.3271935626341076  0.3973930569423203  0.6108761898418962   T   T   T
  0.3313213220345688  0.8024306580983236  0.6113033644871919   T   T   T
  0.3323325627110520  0.0030969697556316  0.6109732919908382   T   T   T
  0.3293101244615855  0.6011430538410210  0.6115452857600019   T   T   T
  0.9970946735030921  0.7960960081775568  0.6144295942940161   T   T   T
  0.9918680918871345  0.4003276940624190  0.6187205444540069   T   T   T
  0.6602444115155421  0.6023792656752960  0.6186963623930168   T   T   T
  0.6600720883435756  0.2036667674481976  0.6185136657723262   T   T   T
  0.8373096907819928  0.4083218389879093  0.6191219592277193   T   T   T
  0.8392420044193898  0.8073618071165996  0.6196999456646992   T   T   T
  0.6643087567014803  0.8064651911278489  0.6195695372846544   T   T   T
  0.5057930871993435  0.2059291782669419  0.6190952032881896   T   T   T
  0.5066162537232870  0.7962893116406136  0.6195564920245147   T   T   T
  0.1733473909905499  0.7900993673721928  0.6194460062778688   T   T   T
  0.1715353501682486  0.5900941213224087  0.6193764751336843   T   T   T
  0.1726182257346807  0.3894803374296956  0.6193049586849071   T   T   T
  0.8427708355573600  0.6047340738184630  0.6205818304957731   T   T   T
  0.5057306685880221  0.5950581409814362  0.6202767369811397   T   T   T
  0.5087522035953214  0.4012064473410746  0.6201638478646956   T   T   T
  0.9923753649195959  0.9996185717948265  0.6206793581435477   T   T   T
  0.8420624783354853  0.2044123760383485  0.6207083744265702   T   T   T
  0.8387505345738191  0.0096993112271448  0.6211071193411186   T   T   T
  0.1740600605292286  0.9905334995262294  0.6202728049329238   T   T   T
  0.5120631993550333  0.0013348475267492  0.6212485301090496   T   T   T
  0.1770906856081567  0.1939543373779600  0.6210287743518919   T   T   T
  0.2105269269969767  0.8646844528653830  0.6772077427451180   T   T   T
  0.1039515335051675  0.6266957451270301  0.6930357744119959   T   T   T
  0.1470922238699828  0.8772093136519317  0.7581825538778943   T   T   T
  0.0764047631918388  0.7128952999880553  0.7680916481801816   T   T   T
  0.9938609314539164  0.1992015822464026  0.3814956674781840   F   F   F
  0.3294138971415279  0.3943092405197817  0.3822023620220065   F   F   F
  0.9961744508764667  0.9998135232560088  0.3836478681771993   F   F   F
  0.3336070544640464  0.5926530336570153  0.3830959447590914   F   F   F
  0.6614062998307091  0.8041304786931533  0.3853685922055732   F   F   F
  0.6655372716693222  0.6054122224916583  0.3860038901848455   F   F   F
  0.6628067116394050  0.4056399945125833  0.3861148446531786   F   F   F
  0.6615175242946023  0.0056385025339480  0.3859256800833677   F   F   F
  0.9957740015655645  0.3983666713437444  0.3867696005936025   F   F   F
  0.9992469569739413  0.5969091285845636  0.3854624960125292   F   F   F
  0.9963927678129068  0.7957833683684470  0.3860207824611237   F   F   F
  0.3295294389079473  0.1935618925608296  0.3862646030915400   F   F   F
  0.3296388886848902  0.9933821397004721  0.3868128434045133   F   F   F
  0.6616607069941693  0.2048100416072884  0.3868164192747940   F   F   F
  0.3306055763415756  0.7935270567354422  0.3874412429476948   F   F   F
  0.5840496587928214  0.7035896702325957  0.4606209713901279   F   F   F
  0.9169882668411447  0.6982061916113906  0.4613887916136648   F   F   F
  0.9164941565328206  0.4964084895186360  0.4618647684832098   F   F   F
  0.9147014244530425  0.9019146339681399  0.4621871862584754   F   F   F
  0.9140666110326592  0.3008995827796994  0.4625047596711624   F   F   F
  0.5853413762246333  0.5032614519427057  0.4621317521124482   F   F   F
  0.5838421057012440  0.3026110216380999  0.4623290568221066   F   F   F
  0.5823958656613684  0.8998249132526865  0.4627470804333242   F   F   F
  0.5834842354643612  0.1029164190987188  0.4629125508212155   F   F   F
  0.2483861302322978  0.4946516193904884  0.4627931195170092   F   F   F
  0.2508851678824513  0.8965376113749457  0.4630946097859336   F   F   F
  0.9137036033111343  0.1029352455746846  0.4637638600165275   F   F   F
  0.2500976693811481  0.0978738666620700  0.4627116489091421   F   F   F
  0.2479240285638866  0.2988551566615598  0.4630625125313443   F   F   F
  0.2506742796072032  0.6963878040307634  0.4636854083614352   F   F   F
  0.8351008256721499  0.6002196164208300  0.5353674275940747   F   F   F
  0.8326306510177659  0.8037412396112131  0.5360571904145175   F   F   F
  0.8337520199103139  0.2018041525001593  0.5361646885433871   F   F   F
  0.1689991800036168  0.7957615681154735  0.5357968746097086   F   F   F
  0.1670653149268091  0.5969240689968416  0.5357907261314665   F   F   F
  0.8330213530221684  0.4033961064022975  0.5371736061910468   F   F   F
  0.5002401251059041  0.0010018398119414  0.5365345372350703   F   F   F
  0.1678251711245053  0.3950219883403960  0.5364061028458664   F   F   F
  0.1674752029353499  0.1997374338115208  0.5363489236050540   F   F   F
  0.1668668586555384  0.9991731155528711  0.5365677046116630   F   F   F
  0.4992470834632172  0.7989117170563915  0.5376924186792564   F   F   F
  0.8327283204060976  0.0047472646859603  0.5380283657072411   F   F   F
  0.5004393178405024  0.4010878306565857  0.5379773136153361   F   F   F
  0.4996998737436655  0.2032009087442148  0.5380027711188262   F   F   F
  0.4988671825815132  0.5967063131313921  0.5395451712511772   F   F   F
  0.4201446313920272  0.3001564262862786  0.6133680170071116   T   T   T
  0.4213951892338343  0.8994658296622049  0.6140165941288984   T   T   T
  0.4210967253138946  0.1031945383933603  0.6135008987402699   T   T   T
  0.4194984692700956  0.5011451733011612  0.6137746760261678   T   T   T
  0.0871739400436624  0.6932104397372925  0.6137468642556030   T   T   T
  0.4191537403523000  0.6986027020411925  0.6145208355701470   T   T   T
  0.7511296493538993  0.3056000943005088  0.6153724501934121   T   T   T
  0.7523978728800671  0.5053569784713261  0.6161057696396597   T   T   T
  0.0851651769786699  0.0956263988980552  0.6152925988539906   T   T   T
  0.7543764345438362  0.1035982823242421  0.6166505120088175   T   T   T
  0.0839946212774692  0.4947458817879706  0.6158812194708858   T   T   T
  0.7526790369633360  0.9064384026072290  0.6176145240511701   T   T   T
  0.0878020635119441  0.2943978905789635  0.6162719475479577   T   T   T
  0.7516632249814492  0.7072272736243832  0.6199079663449680   T   T   T
  0.0868156243660749  0.8931265416880265  0.6207694040723339   T   T   T
  0.8310416674045769  0.2009332183526382  0.3852396375837230   F   F   F
  0.4993590251640541  0.4016646813279294  0.3853801886643851   F   F   F
  0.8346995726490078  0.3983717130384292  0.3859186853710668   F   F   F
  0.8343145883398932  0.8006136421618919  0.3863442381501940   F   F   F
  0.1646926023513302  0.1966058779038278  0.3852501772620442   F   F   F
  0.4979627714360291  0.8008935472075009  0.3862189101832456   F   F   F
  0.1654058534809479  0.3953904472260277  0.3854459082489257   F   F   F
  0.5051405152777946  0.6008065647650653  0.3862144588332015   F   F   F
  0.1686681541686923  0.9986599768049658  0.3853035146181654   F   F   F
  0.8382244937641588  0.5987008725972558  0.3869366541460195   F   F   F
  0.8326622573950715  0.0013524239328930  0.3866724991667709   F   F   F
  0.5001933356300015  0.2008870694944420  0.3874460513239839   F   F   F
  0.1691919654453642  0.7951299990751011  0.3874050713677519   F   F   F
  0.1728013113165119  0.5946676950050573  0.3876550054046035   F   F   F
  0.4988765784204077  0.0001458828135554  0.3881063991493932   F   F   F
  0.7487841271580109  0.7036110232548154  0.4601843578204168   F   F   F
  0.7479045775130047  0.9036945519239339  0.4607462623035090   F   F   F
  0.0812742683963492  0.8997404646166842  0.4602903049868345   F   F   F
  0.7497614442228766  0.5028243586333545  0.4615068091014010   F   F   F
  0.7479682252476039  0.1045113283176420  0.4614095043780395   F   F   F
  0.0803221655836239  0.1000446143425577  0.4607262166908228   F   F   F
  0.7492451455752800  0.3029263055922655  0.4621969439258891   F   F   F
  0.0834013909247631  0.6976467166173848  0.4614923864975893   F   F   F
  0.0827871265751057  0.4974312491818154  0.4614054707070707   F   F   F
  0.4150748557727724  0.2978211496362917  0.4620005811297503   F   F   F
  0.4159749620490985  0.4979791383694518  0.4622580819837552   F   F   F
  0.0812059873562632  0.2997199044717362  0.4619263768274706   F   F   F
  0.4154152965858700  0.0977504154439828  0.4627056888572696   F   F   F
  0.4169481506439681  0.6983769876778751  0.4632667813313702   F   F   F
  0.4161321625639687  0.8973994233924785  0.4637282338864210   F   F   F
  0.9997111285288014  0.3991309657535922  0.5375440464893373   F   F   F
  0.6662173982569826  0.4033047604778588  0.5370648407232750   F   F   F
  0.6667808325728046  0.6028983414538871  0.5374002120924075   F   F   F
  0.6677419254748855  0.8035503361366878  0.5375387240022960   F   F   F
  0.6678597440174485  0.0034458628222538  0.5371374287090873   F   F   F
  0.3337552603522127  0.1996951301462957  0.5369113853529726   F   F   F
  0.0007958492542528  0.5977685533446078  0.5366879033078789   F   F   F
  0.6664216715671500  0.2037705784302872  0.5374948345365667   F   F   F
  0.9992512760747516  0.0014221502507752  0.5384852740276926   F   F   F
  0.0008719765378942  0.7982518254211044  0.5374221060361961   F   F   F
  0.3334027483121176  0.3985255581322562  0.5378991861652409   F   F   F
  0.3347224590889155  0.7991041937997636  0.5382477691502174   F   F   F
  0.3343843723153768  0.9996573070623143  0.5378666382264612   F   F   F
  0.3344225251980433  0.5981810976307003  0.5386259719240343   F   F   F
  0.0002127843769841  0.1987920462565569  0.5389582712343355   F   F   F
  0.9162413451285687  0.7012551875060993  0.6132084202172337   T   T   T
  0.2492156303037376  0.8972990150578610  0.6124213852694922   T   T   T
  0.2446759295425025  0.4956215045187520  0.6122434952722386   T   T   T
  0.2484821124510646  0.6967177728675296  0.6125220229109374   T   T   T
  0.2498649342877570  0.0975168642555815  0.6122640449132248   T   T   T
  0.9137053322843158  0.3027839031286135  0.6142653739256900   T   T   T
  0.5867058040879343  0.9010506621397596  0.6142221851668168   T   T   T
  0.9129808195560472  0.9033644629575477  0.6148916378227369   T   T   T
  0.5841337172261163  0.1031829669350373  0.6141007150177202   T   T   T
  0.2504091733709970  0.2964375787878026  0.6138041471457711   T   T   T
  0.9156824985410452  0.5009962869668456  0.6151907011195306   T   T   T
  0.5816828089488695  0.3025059011805169  0.6155702632943942   T   T   T
  0.5809628226375239  0.7009724433663678  0.6158900776782161   T   T   T
  0.5820624537960839  0.5011190627099325  0.6158645695545033   T   T   T
  0.9166913965164838  0.1016982172626442  0.6170820577064546   T   T   T
  0.3685849930392422  0.8542900746206570  0.7295918918094770   T   T   T
  0.3036946936555793  0.9846578873025180  0.7505120368503668   T   T   T
  0.2073155927784356  0.4941664515367989  0.7535428368053587   T   T   T
  0.0860530260708572  0.4986518277891818  0.7828351392329935   T   T   T
  0.3124489521231553  0.8646270725616745  0.8031183643732120   T   T   T
  0.1820106267658019  0.5733509027678210  0.8224904455969053   T   T   T
  0.2176318141300939  0.8386247050391091  0.7298384069311723   T   T   T
  0.1347886921367873  0.6536313240749152  0.7421418734160525   T   T   T
  0.2204533886818325  0.7169083971963772  0.7352329985977875   T   T   T
  0.3059222462296418  0.8885660239377700  0.7547709230167001   T   T   T
  0.1536830558178153  0.5486073817031638  0.7773807409257856   T   T   T
 
  0.00000000E+00  0.00000000E+00  0.00000000E+00
  0.00000000E+00  0.00000000E+00  0.00000000E+00
  0.00000000E+00  0.00000000E+00  0.00000000E+00
  0.00000000E+00  0.00000000E+00  0.00000000E+00
  0.00000000E+00  0.00000000E+00  0.00000000E+00
  0.00000000E+00  0.00000000E+00  0.00000000E+00
  0.00000000E+00  0.00000000E+00  0.00000000E+00
  0.00000000E+00  0.00000000E+00  0.00000000E+00
  0.00000000E+00  0.00000000E+00  0.00000000E+00
  0.00000000E+00  0.00000000E+00  0.00000000E+00
  0.00000000E+00  0.00000000E+00  0.00000000E+00
  0.00000000E+00  0.00000000E+00  0.00000000E+00
  0.00000000E+00  0.00000000E+00  0.00000000E+00
  0.00000000E+00  0.00000000E+00  0.00000000E+00
  0.00000000E+00  0.00000000E+00  0.00000000E+00
  0.00000000E+00  0.00000000E+00  0.00000000E+00
  0.00000000E+00  0.00000000E+00  0.00000000E+00
  0.00000000E+00  0.00000000E+00  0.00000000E+00
  0.00000000E+00  0.00000000E+00  0.00000000E+00
  0.00000000E+00  0.00000000E+00  0.00000000E+00
  0.00000000E+00  0.00000000E+00  0.00000000E+00
  0.00000000E+00  0.00000000E+00  0.00000000E+00
  0.00000000E+00  0.00000000E+00  0.00000000E+00
  0.00000000E+00  0.00000000E+00  0.00000000E+00
  0.00000000E+00  0.00000000E+00  0.00000000E+00
  0.00000000E+00  0.00000000E+00  0.00000000E+00
  0.00000000E+00  0.00000000E+00  0.00000000E+00
  0.00000000E+00  0.00000000E+00  0.00000000E+00
  0.00000000E+00  0.00000000E+00  0.00000000E+00
  0.00000000E+00  0.00000000E+00  0.00000000E+00
  0.00000000E+00  0.00000000E+00  0.00000000E+00
  0.00000000E+00  0.00000000E+00  0.00000000E+00
  0.00000000E+00  0.00000000E+00  0.00000000E+00
  0.00000000E+00  0.00000000E+00  0.00000000E+00
  0.00000000E+00  0.00000000E+00  0.00000000E+00
  0.00000000E+00  0.00000000E+00  0.00000000E+00
  0.00000000E+00  0.00000000E+00  0.00000000E+00
  0.00000000E+00  0.00000000E+00  0.00000000E+00
  0.00000000E+00  0.00000000E+00  0.00000000E+00
  0.00000000E+00  0.00000000E+00  0.00000000E+00
  0.00000000E+00  0.00000000E+00  0.00000000E+00
  0.00000000E+00  0.00000000E+00  0.00000000E+00
  0.00000000E+00  0.00000000E+00  0.00000000E+00
  0.00000000E+00  0.00000000E+00  0.00000000E+00
  0.00000000E+00  0.00000000E+00  0.00000000E+00
  0.00000000E+00  0.00000000E+00  0.00000000E+00
  0.00000000E+00  0.00000000E+00  0.00000000E+00
  0.00000000E+00  0.00000000E+00  0.00000000E+00
  0.00000000E+00  0.00000000E+00  0.00000000E+00
  0.00000000E+00  0.00000000E+00  0.00000000E+00
  0.00000000E+00  0.00000000E+00  0.00000000E+00
  0.00000000E+00  0.00000000E+00  0.00000000E+00
  0.00000000E+00  0.00000000E+00  0.00000000E+00
  0.00000000E+00  0.00000000E+00  0.00000000E+00
  0.00000000E+00  0.00000000E+00  0.00000000E+00
  0.00000000E+00  0.00000000E+00  0.00000000E+00
  0.00000000E+00  0.00000000E+00  0.00000000E+00
  0.00000000E+00  0.00000000E+00  0.00000000E+00
  0.00000000E+00  0.00000000E+00  0.00000000E+00
  0.00000000E+00  0.00000000E+00  0.00000000E+00
  0.00000000E+00  0.00000000E+00  0.00000000E+00
  0.00000000E+00  0.00000000E+00  0.00000000E+00
  0.00000000E+00  0.00000000E+00  0.00000000E+00
  0.00000000E+00  0.00000000E+00  0.00000000E+00
  0.00000000E+00  0.00000000E+00  0.00000000E+00
  0.00000000E+00  0.00000000E+00  0.00000000E+00
  0.00000000E+00  0.00000000E+00  0.00000000E+00
  0.00000000E+00  0.00000000E+00  0.00000000E+00
  0.00000000E+00  0.00000000E+00  0.00000000E+00
  0.00000000E+00  0.00000000E+00  0.00000000E+00
  0.00000000E+00  0.00000000E+00  0.00000000E+00
  0.00000000E+00  0.00000000E+00  0.00000000E+00
  0.00000000E+00  0.00000000E+00  0.00000000E+00
  0.00000000E+00  0.00000000E+00  0.00000000E+00
  0.00000000E+00  0.00000000E+00  0.00000000E+00
  0.00000000E+00  0.00000000E+00  0.00000000E+00
  0.00000000E+00  0.00000000E+00  0.00000000E+00
  0.00000000E+00  0.00000000E+00  0.00000000E+00
  0.00000000E+00  0.00000000E+00  0.00000000E+00
  0.00000000E+00  0.00000000E+00  0.00000000E+00
  0.00000000E+00  0.00000000E+00  0.00000000E+00
  0.00000000E+00  0.00000000E+00  0.00000000E+00
  0.00000000E+00  0.00000000E+00  0.00000000E+00
  0.00000000E+00  0.00000000E+00  0.00000000E+00
  0.00000000E+00  0.00000000E+00  0.00000000E+00
  0.00000000E+00  0.00000000E+00  0.00000000E+00
  0.00000000E+00  0.00000000E+00  0.00000000E+00
  0.00000000E+00  0.00000000E+00  0.00000000E+00
  0.00000000E+00  0.00000000E+00  0.00000000E+00
  0.00000000E+00  0.00000000E+00  0.00000000E+00
  0.00000000E+00  0.00000000E+00  0.00000000E+00
  0.00000000E+00  0.00000000E+00  0.00000000E+00
  0.00000000E+00  0.00000000E+00  0.00000000E+00
  0.00000000E+00  0.00000000E+00  0.00000000E+00
  0.00000000E+00  0.00000000E+00  0.00000000E+00
  0.00000000E+00  0.00000000E+00  0.00000000E+00
  0.00000000E+00  0.00000000E+00  0.00000000E+00
  0.00000000E+00  0.00000000E+00  0.00000000E+00
  0.00000000E+00  0.00000000E+00  0.00000000E+00
  0.00000000E+00  0.00000000E+00  0.00000000E+00
  0.00000000E+00  0.00000000E+00  0.00000000E+00
  0.00000000E+00  0.00000000E+00  0.00000000E+00
  0.00000000E+00  0.00000000E+00  0.00000000E+00
  0.00000000E+00  0.00000000E+00  0.00000000E+00
  0.00000000E+00  0.00000000E+00  0.00000000E+00
  0.00000000E+00  0.00000000E+00  0.00000000E+00
  0.00000000E+00  0.00000000E+00  0.00000000E+00
  0.00000000E+00  0.00000000E+00  0.00000000E+00
  0.00000000E+00  0.00000000E+00  0.00000000E+00
  0.00000000E+00  0.00000000E+00  0.00000000E+00
  0.00000000E+00  0.00000000E+00  0.00000000E+00
  0.00000000E+00  0.00000000E+00  0.00000000E+00
  0.00000000E+00  0.00000000E+00  0.00000000E+00
  0.00000000E+00  0.00000000E+00  0.00000000E+00
  0.00000000E+00  0.00000000E+00  0.00000000E+00
  0.00000000E+00  0.00000000E+00  0.00000000E+00
  0.00000000E+00  0.00000000E+00  0.00000000E+00
  0.00000000E+00  0.00000000E+00  0.00000000E+00
  0.00000000E+00  0.00000000E+00  0.00000000E+00
  0.00000000E+00  0.00000000E+00  0.00000000E+00
  0.00000000E+00  0.00000000E+00  0.00000000E+00
  0.00000000E+00  0.00000000E+00  0.00000000E+00
  0.00000000E+00  0.00000000E+00  0.00000000E+00
  0.00000000E+00  0.00000000E+00  0.00000000E+00
  0.00000000E+00  0.00000000E+00  0.00000000E+00
  0.00000000E+00  0.00000000E+00  0.00000000E+00
  0.00000000E+00  0.00000000E+00  0.00000000E+00
  0.00000000E+00  0.00000000E+00  0.00000000E+00
  0.00000000E+00  0.00000000E+00  0.00000000E+00
  0.00000000E+00  0.00000000E+00  0.00000000E+00
  0.00000000E+00  0.00000000E+00  0.00000000E+00
  0.00000000E+00  0.00000000E+00  0.00000000E+00
  0.00000000E+00  0.00000000E+00  0.00000000E+00
  0.00000000E+00  0.00000000E+00  0.00000000E+00
  0.00000000E+00  0.00000000E+00  0.00000000E+00
  0.00000000E+00  0.00000000E+00  0.00000000E+00
  0.00000000E+00  0.00000000E+00  0.00000000E+00
  0.00000000E+00  0.00000000E+00  0.00000000E+00
  0.00000000E+00  0.00000000E+00  0.00000000E+00
  0.00000000E+00  0.00000000E+00  0.00000000E+00
  0.00000000E+00  0.00000000E+00  0.00000000E+00
  0.00000000E+00  0.00000000E+00  0.00000000E+00
  0.00000000E+00  0.00000000E+00  0.00000000E+00
  0.00000000E+00  0.00000000E+00  0.00000000E+00
  0.00000000E+00  0.00000000E+00  0.00000000E+00
  0.00000000E+00  0.00000000E+00  0.00000000E+00
  0.00000000E+00  0.00000000E+00  0.00000000E+00
  0.00000000E+00  0.00000000E+00  0.00000000E+00
  0.00000000E+00  0.00000000E+00  0.00000000E+00
  0.00000000E+00  0.00000000E+00  0.00000000E+00
  0.00000000E+00  0.00000000E+00  0.00000000E+00
  0.00000000E+00  0.00000000E+00  0.00000000E+00
  0.00000000E+00  0.00000000E+00  0.00000000E+00
  0.00000000E+00  0.00000000E+00  0.00000000E+00
  0.00000000E+00  0.00000000E+00  0.00000000E+00
  0.00000000E+00  0.00000000E+00  0.00000000E+00
  0.00000000E+00  0.00000000E+00  0.00000000E+00
  0.00000000E+00  0.00000000E+00  0.00000000E+00
  0.00000000E+00  0.00000000E+00  0.00000000E+00
  0.00000000E+00  0.00000000E+00  0.00000000E+00
  0.00000000E+00  0.00000000E+00  0.00000000E+00
  0.00000000E+00  0.00000000E+00  0.00000000E+00
  0.00000000E+00  0.00000000E+00  0.00000000E+00
  0.00000000E+00  0.00000000E+00  0.00000000E+00
  0.00000000E+00  0.00000000E+00  0.00000000E+00
  0.00000000E+00  0.00000000E+00  0.00000000E+00
  0.00000000E+00  0.00000000E+00  0.00000000E+00
  0.00000000E+00  0.00000000E+00  0.00000000E+00
  0.00000000E+00  0.00000000E+00  0.00000000E+00
  0.00000000E+00  0.00000000E+00  0.00000000E+00
  0.00000000E+00  0.00000000E+00  0.00000000E+00
  0.00000000E+00  0.00000000E+00  0.00000000E+00
  0.00000000E+00  0.00000000E+00  0.00000000E+00
  0.00000000E+00  0.00000000E+00  0.00000000E+00
  0.00000000E+00  0.00000000E+00  0.00000000E+00
  0.00000000E+00  0.00000000E+00  0.00000000E+00
  0.00000000E+00  0.00000000E+00  0.00000000E+00
  0.00000000E+00  0.00000000E+00  0.00000000E+00
  0.00000000E+00  0.00000000E+00  0.00000000E+00
  0.00000000E+00  0.00000000E+00  0.00000000E+00
  0.00000000E+00  0.00000000E+00  0.00000000E+00
  0.00000000E+00  0.00000000E+00  0.00000000E+00
  0.00000000E+00  0.00000000E+00  0.00000000E+00
  0.00000000E+00  0.00000000E+00  0.00000000E+00
  0.00000000E+00  0.00000000E+00  0.00000000E+00
  0.00000000E+00  0.00000000E+00  0.00000000E+00
  0.00000000E+00  0.00000000E+00  0.00000000E+00
  0.00000000E+00  0.00000000E+00  0.00000000E+00
  0.00000000E+00  0.00000000E+00  0.00000000E+00
  0.00000000E+00  0.00000000E+00  0.00000000E+00
  0.00000000E+00  0.00000000E+00  0.00000000E+00
  0.00000000E+00  0.00000000E+00  0.00000000E+00
  0.00000000E+00  0.00000000E+00  0.00000000E+00
  0.00000000E+00  0.00000000E+00  0.00000000E+00
  0.00000000E+00  0.00000000E+00  0.00000000E+00
  0.00000000E+00  0.00000000E+00  0.00000000E+00
  0.00000000E+00  0.00000000E+00  0.00000000E+00
  0.00000000E+00  0.00000000E+00  0.00000000E+00
  0.00000000E+00  0.00000000E+00  0.00000000E+00
  0.00000000E+00  0.00000000E+00  0.00000000E+00
  0.00000000E+00  0.00000000E+00  0.00000000E+00
  0.00000000E+00  0.00000000E+00  0.00000000E+00
  0.00000000E+00  0.00000000E+00  0.00000000E+00
  0.00000000E+00  0.00000000E+00  0.00000000E+00
  0.00000000E+00  0.00000000E+00  0.00000000E+00
  0.00000000E+00  0.00000000E+00  0.00000000E+00
  0.00000000E+00  0.00000000E+00  0.00000000E+00
  0.00000000E+00  0.00000000E+00  0.00000000E+00
  0.00000000E+00  0.00000000E+00  0.00000000E+00
  0.00000000E+00  0.00000000E+00  0.00000000E+00
  0.00000000E+00  0.00000000E+00  0.00000000E+00
  0.00000000E+00  0.00000000E+00  0.00000000E+00
  0.00000000E+00  0.00000000E+00  0.00000000E+00
  0.00000000E+00  0.00000000E+00  0.00000000E+00
  0.00000000E+00  0.00000000E+00  0.00000000E+00
  0.00000000E+00  0.00000000E+00  0.00000000E+00
  0.00000000E+00  0.00000000E+00  0.00000000E+00
  0.00000000E+00  0.00000000E+00  0.00000000E+00
  0.00000000E+00  0.00000000E+00  0.00000000E+00
  0.00000000E+00  0.00000000E+00  0.00000000E+00
  0.00000000E+00  0.00000000E+00  0.00000000E+00
  0.00000000E+00  0.00000000E+00  0.00000000E+00
  0.00000000E+00  0.00000000E+00  0.00000000E+00
  0.00000000E+00  0.00000000E+00  0.00000000E+00