 C  F  S  O                             
   1.00000000000000     
    20.0000000000000000    0.0000000000000000    0.0000000000000000
     0.0000000000000000   20.0000000000000000    0.0000000000000000
     0.0000000000000000    0.0000000000000000   20.0000000000000000
   C    F    S    O 
     4     9     1     3
Direct
  0.2273246897399184  0.2465960647828128  0.2483443324975786
  0.3008757265371238  0.2205124451283060  0.2381003943858058
  0.1727132621842850  0.2078348094084234  0.2080024181837827
  0.3572396646468132  0.2703892947550698  0.2601963530211579
  0.2267975545505553  0.3127143686164078  0.2298544944474688
  0.2147839855233264  0.2429255354322207  0.3154010221854879
  0.3126707359891123  0.2064743512926316  0.1720930165009822
  0.3102031978409759  0.1632723683470644  0.2743399238952742
  0.1780189605797882  0.2284039225031014  0.1424483521701136
  0.1895232740539852  0.1407555094067006  0.2094659005818697
  0.3623369750300732  0.3230261752661793  0.2179773809106602
  0.4171403048678635  0.2379085907627404  0.2597984549916600
  0.3467221479449442  0.2938473085646816  0.3228324888391792
  0.0832320564848285  0.2191876105089129  0.2384368800903556
  0.0792822374357328  0.2914331130998236  0.2480394167303695
  0.0816790089751017  0.1789658306455138  0.2991933216388754
  0.0455801658155695  0.1925845815294244  0.1819591822293782
 
  0.00000000E+00  0.00000000E+00  0.00000000E+00
  0.00000000E+00  0.00000000E+00  0.00000000E+00
  0.00000000E+00  0.00000000E+00  0.00000000E+00
  0.00000000E+00  0.00000000E+00  0.00000000E+00
  0.00000000E+00  0.00000000E+00  0.00000000E+00
  0.00000000E+00  0.00000000E+00  0.00000000E+00
  0.00000000E+00  0.00000000E+00  0.00000000E+00
  0.00000000E+00  0.00000000E+00  0.00000000E+00
  0.00000000E+00  0.00000000E+00  0.00000000E+00
  0.00000000E+00  0.00000000E+00  0.00000000E+00
  0.00000000E+00  0.00000000E+00  0.00000000E+00
  0.00000000E+00  0.00000000E+00  0.00000000E+00
  0.00000000E+00  0.00000000E+00  0.00000000E+00
  0.00000000E+00  0.00000000E+00  0.00000000E+00
  0.00000000E+00  0.00000000E+00  0.00000000E+00
  0.00000000E+00  0.00000000E+00  0.00000000E+00
  0.00000000E+00  0.00000000E+00  0.00000000E+00
