Line_mode KPOINTS file
20
Line_mode
Reciprocal
0.0 -0.5 0.0 ! X
0.0 0.0 0.0 ! \Gamma

0.0 0.0 0.0 ! \Gamma
0.5 0.0 0.0 ! Y

0.5 -0.5 0.0 ! L
0.0 0.0 0.0 ! \Gamma

0.0 0.0 0.0 ! \Gamma
-0.5 0.0 0.5 ! Z

-0.5 -0.5 0.5 ! N
0.0 0.0 0.0 ! \Gamma

0.0 0.0 0.0 ! \Gamma
0.0 0.0 0.5 ! M

0.0 -0.5 0.5 ! R
0.0 0.0 0.0 ! \Gamma

