#=======================================================
# FHI-aims file: /nethome/he000026/phd/1-Phd-NMC-LLZO/5-LCO+TFSI-PFBS/5-fhi-aims/R2SCAN/06-PFBS/geometry.in
# Created using the Atomic Simulation Environment (ASE)
# Fri Sep  6 13:56:13 2024
#=======================================================
lattice_vector 20.0000000000000000 0.0000000000000000 0.0000000000000000 
lattice_vector 0.0000000000000000 20.0000000000000000 0.0000000000000000 
lattice_vector 0.0000000000000000 0.0000000000000000 20.0000000000000000 
atom 4.5895209609999998 4.9451171550000002 4.9557734819999997 C
    initial_charge         1.000000
    initial_moment         0.000100
atom 6.0045647500000010 4.3750058630000002 4.7971562800000003 C
    initial_charge         1.000000
    initial_moment         0.000100
atom 3.5661989890000001 4.2114260669999997 4.0993954229999998 C
    initial_charge         1.000000
    initial_moment         0.000100
atom 7.0899173629999996 5.3853906719999998 5.1773283990000003 C
    initial_charge         1.000000
    initial_moment         0.000100
atom 4.6388509359999999 6.2825757820000003 4.5689125910000001 F
    initial_charge         1.000000
    initial_moment         0.000100
atom 4.2229708319999997 4.8667997580000000 6.2798973130000002 F
    initial_charge         1.000000
    initial_moment         0.000100
atom 6.1937730580000006 4.0386330399999997 3.4692073960000003 F
    initial_charge         1.000000
    initial_moment         0.000100
atom 6.1433250000000008 3.2646739380000001 5.5937604190000005 F
    initial_charge         1.000000
    initial_moment         0.000100
atom 3.5085718990000005 4.7825329470000000 2.8515525970000000 F
    initial_charge         1.000000
    initial_moment         0.000100
atom 3.8850537930000000 2.8779519850000002 4.0235665840000001 F
    initial_charge         1.000000
    initial_moment         0.000100
atom 7.2433831580000003 6.3173109240000000 4.1977744809999997 F
    initial_charge         1.000000
    initial_moment         0.000100
atom 8.2757363989999995 4.7366619080000003 5.3561264680000011 F
    initial_charge         1.000000
    initial_moment         0.000100
atom 6.7456105290000012 6.0076290669999999 6.3437103110000006 F
    initial_charge         1.000000
    initial_moment         0.000100
atom 1.7683599690000000 4.3358279810000004 4.8500032859999997 S
    initial_charge         1.000000
    initial_moment         0.000100
atom 1.6443356819999999 5.9173679020000005 5.0763336270000003 O
    initial_charge        -2.000000
    initial_moment         0.000100
atom 1.6827796840000000 3.3840987350000002 6.1150506290000006 O
    initial_charge        -2.000000
    initial_moment         0.000100
atom 0.9195259620000001 3.8076338770000002 3.5741173800000006 O
    initial_charge        -2.000000
    initial_moment         0.000100
