#=======================================================
# FHI-aims file: /nethome/he000026/phd/1-Phd-NMC-LLZO/5-LCO+TFSI-PFBS/5-fhi-aims/R2SCAN/02-LCO-104+PFBS/geometry.in
# Created using the Atomic Simulation Environment (ASE)
# Fri Sep  6 14:09:08 2024
#=======================================================
lattice_vector 16.9499447509299443 0.0058937000504963 -0.0434088738165042 
lattice_vector -0.0296715727828860 13.9897118404382219 -0.0182644650124657 
lattice_vector 0.0009181325852237 -0.0175280202879438 26.9442818122840073 
atom 15.3237366073120675 1.3954565773005783 10.1155733126147762 O
    constrain_relaxation .true.
    initial_charge        -2.000000
    initial_moment         0.000100
atom 15.3694304128280255 12.5216727672536461 10.1475878502858752 O
    constrain_relaxation .true.
    initial_charge        -2.000000
    initial_moment         0.000100
atom 15.3497096267542847 4.1544305227526053 10.1494065927716406 O
    constrain_relaxation .true.
    initial_charge        -2.000000
    initial_moment         0.000100
atom 9.6520989021418533 12.6425150238826891 10.1657914784870034 O
    constrain_relaxation .true.
    initial_charge        -2.000000
    initial_moment         0.000100
atom 15.4237717241264072 9.7015856559400877 10.1782493762839632 O
    constrain_relaxation .true.
    initial_charge        -2.000000
    initial_moment         0.000100
atom 9.7233958335756494 9.9066559654793469 10.1783038037057700 O
    constrain_relaxation .true.
    initial_charge        -2.000000
    initial_moment         0.000100
atom 15.4188565053623474 6.8921150783853005 10.1825805242774852 O
    constrain_relaxation .true.
    initial_charge        -2.000000
    initial_moment         0.000100
atom 4.0378580251112730 4.0958956928258905 10.1898184162263501 O
    constrain_relaxation .true.
    initial_charge        -2.000000
    initial_moment         0.000100
atom 9.7394672603126953 4.3100907770617543 10.2015856051906617 O
    constrain_relaxation .true.
    initial_charge        -2.000000
    initial_moment         0.000100
atom 1.4536166091350957 1.4338681672807891 10.2065287758548333 O
    constrain_relaxation .true.
    initial_charge        -2.000000
    initial_moment         0.000100
atom 9.7311126509295534 1.4879291916959134 10.2100887295484632 O
    constrain_relaxation .true.
    initial_charge        -2.000000
    initial_moment         0.000100
atom 9.8007549534102250 7.0949623828778314 10.2135766160365709 O
    constrain_relaxation .true.
    initial_charge        -2.000000
    initial_moment         0.000100
atom 4.1325878258458006 1.2670355627018139 10.2207640474312544 O
    constrain_relaxation .true.
    initial_charge        -2.000000
    initial_moment         0.000100
atom 4.1136300951069762 6.8231427256342343 10.2280882773265489 O
    constrain_relaxation .true.
    initial_charge        -2.000000
    initial_moment         0.000100
atom 4.0953543049210328 12.4398719265357620 10.2281904170789932 O
    constrain_relaxation .true.
    initial_charge        -2.000000
    initial_moment         0.000100
atom 7.1205130510826384 6.9328104841185860 10.2341059637101743 O
    constrain_relaxation .true.
    initial_charge        -2.000000
    initial_moment         0.000100
atom 4.1560669689490490 9.6361171057822403 10.2383841070315516 O
    constrain_relaxation .true.
    initial_charge        -2.000000
    initial_moment         0.000100
atom 12.7566853807911134 9.8471483690349686 10.3957458532063427 O
    constrain_relaxation .true.
    initial_charge        -2.000000
    initial_moment         0.000100
atom 12.6980195471356101 12.6813783066220349 10.4020046385199940 O
    constrain_relaxation .true.
    initial_charge        -2.000000
    initial_moment         0.000100
atom 12.8110036652476076 6.9824493720555507 10.4368577867780026 O
    constrain_relaxation .true.
    initial_charge        -2.000000
    initial_moment         0.000100
atom 1.4686449674671336 9.7745306260180804 10.4485513562976351 O
    constrain_relaxation .true.
    initial_charge        -2.000000
    initial_moment         0.000100
atom 1.5019651568538488 6.9568900284618751 10.4553034815270252 O
    constrain_relaxation .true.
    initial_charge        -2.000000
    initial_moment         0.000100
atom 12.7249222916746412 1.4804799367092107 10.4555392152361808 O
    constrain_relaxation .true.
    initial_charge        -2.000000
    initial_moment         0.000100
atom 7.0562309098432854 4.1132589795893182 10.4565439093674737 O
    constrain_relaxation .true.
    initial_charge        -2.000000
    initial_moment         0.000100
atom 1.4282933860597082 12.5965491954009980 10.4575565624399243 O
    constrain_relaxation .true.
    initial_charge        -2.000000
    initial_moment         0.000100
atom 12.7802943719524382 4.2350475222780153 10.4667284497649362 O
    constrain_relaxation .true.
    initial_charge        -2.000000
    initial_moment         0.000100
atom 7.0680251986608553 1.3153116863188770 10.4818213915647842 O
    constrain_relaxation .true.
    initial_charge        -2.000000
    initial_moment         0.000100
atom 7.1259647234341532 9.7729673349347408 10.4857929434232826 O
    constrain_relaxation .true.
    initial_charge        -2.000000
    initial_moment         0.000100
atom 1.4145129952501223 4.2077050667935723 10.4936704352828212 O
    constrain_relaxation .true.
    initial_charge        -2.000000
    initial_moment         0.000100
atom 7.0480282862462831 12.5081564986520419 10.5177264372150479 O
    constrain_relaxation .true.
    initial_charge        -2.000000
    initial_moment         0.000100
atom 13.9815322282004963 11.2524881889574768 12.3403921989884253 O
    constrain_relaxation .true.
    initial_charge        -2.000000
    initial_moment         0.000100
atom 13.9974755921956930 8.4438673772176571 12.3555167776505641 O
    constrain_relaxation .true.
    initial_charge        -2.000000
    initial_moment         0.000100
atom 11.3854592757951636 8.4424581774995957 12.3632465190088752 O
    constrain_relaxation .true.
    initial_charge        -2.000000
    initial_moment         0.000100
atom 8.3327273463938010 5.5750139460053356 12.3634185810843782 O
    constrain_relaxation .true.
    initial_charge        -2.000000
    initial_moment         0.000100
atom 2.7243813054640076 0.0425154642748712 12.3635836857813661 O
    constrain_relaxation .true.
    initial_charge        -2.000000
    initial_moment         0.000100
atom 11.3593894750423026 11.2344149679322065 12.3642415127646217 O
    constrain_relaxation .true.
    initial_charge        -2.000000
    initial_moment         0.000100
atom 13.9959293017743178 0.0555604643561445 12.3663804152877628 O
    constrain_relaxation .true.
    initial_charge        -2.000000
    initial_moment         0.000100
atom 8.3491307727202759 8.3552263223181136 12.3760734924758200 O
    constrain_relaxation .true.
    initial_charge        -2.000000
    initial_moment         0.000100
atom 2.6723748443060376 2.7638806259869684 12.3823648418778056 O
    constrain_relaxation .true.
    initial_charge        -2.000000
    initial_moment         0.000100
atom 0.0333492443458976 0.0540019842591034 12.3931699298888258 O
    constrain_relaxation .true.
    initial_charge        -2.000000
    initial_moment         0.000100
atom 11.3713881826730017 2.8447567848248285 12.3953694656949462 O
    constrain_relaxation .true.
    initial_charge        -2.000000
    initial_moment         0.000100
atom 2.7329058987521213 11.1337279542791130 12.3956169324039696 O
    constrain_relaxation .true.
    initial_charge        -2.000000
    initial_moment         0.000100
atom 8.3408401307968898 2.7666837574776597 12.3962673884414762 O
    constrain_relaxation .true.
    initial_charge        -2.000000
    initial_moment         0.000100
atom 2.7065419969518723 8.3585292081175719 12.3999295685423405 O
    constrain_relaxation .true.
    initial_charge        -2.000000
    initial_moment         0.000100
atom 13.9936421141608562 2.8386671272395412 12.4109345416302794 O
    constrain_relaxation .true.
    initial_charge        -2.000000
    initial_moment         0.000100
atom 8.3321856270668579 13.9565957286425260 12.4012371894631812 O
    constrain_relaxation .true.
    initial_charge        -2.000000
    initial_moment         0.000100
atom 0.0742612691693528 5.5677589914888728 12.4247317381259545 O
    constrain_relaxation .true.
    initial_charge        -2.000000
    initial_moment         0.000100
atom 2.6840596870985101 5.5581411603051309 12.4368710265357016 O
    constrain_relaxation .true.
    initial_charge        -2.000000
    initial_moment         0.000100
atom 13.9948071279200619 5.6278362161912332 12.4377746605995565 O
    constrain_relaxation .true.
    initial_charge        -2.000000
    initial_moment         0.000100
atom 0.0284169288029112 11.1149779252162464 12.4513446118432345 O
    constrain_relaxation .true.
    initial_charge        -2.000000
    initial_moment         0.000100
atom 8.3375818761577261 11.1631333330707729 12.4546653360737007 O
    constrain_relaxation .true.
    initial_charge        -2.000000
    initial_moment         0.000100
atom 11.3629561206020799 0.0415840289369370 12.4940496024040915 O
    constrain_relaxation .true.
    initial_charge        -2.000000
    initial_moment         0.000100
atom 11.3827015062631016 5.6391655181085820 12.5006084685377754 O
    constrain_relaxation .true.
    initial_charge        -2.000000
    initial_moment         0.000100
atom 0.0822955355252960 8.3611783886825588 12.5092008553525371 O
    constrain_relaxation .true.
    initial_charge        -2.000000
    initial_moment         0.000100
atom 5.7257540378910399 2.7566024205838335 12.5174605537311159 O
    constrain_relaxation .true.
    initial_charge        -2.000000
    initial_moment         0.000100
atom 5.7279438626989592 5.5717855153394584 12.5341888810473154 O
    constrain_relaxation .true.
    initial_charge        -2.000000
    initial_moment         0.000100
atom 5.7372865171542227 8.3405728275094013 12.5445743622272676 O
    constrain_relaxation .true.
    initial_charge        -2.000000
    initial_moment         0.000100
atom 5.7061420158215057 13.9478982207874740 12.5360455293990345 O
    constrain_relaxation .true.
    initial_charge        -2.000000
    initial_moment         0.000100
atom 5.7274950970379370 11.1464188151941102 12.5553245392532418 O
    constrain_relaxation .true.
    initial_charge        -2.000000
    initial_moment         0.000100
atom 0.0571654460500168 2.7780205682396013 12.5600172320885992 O
    constrain_relaxation .true.
    initial_charge        -2.000000
    initial_moment         0.000100
atom 12.5922063470563543 12.6237874726669510 14.3011304064149645 O
    constrain_relaxation .true.
    initial_charge        -2.000000
    initial_moment         0.000100
atom 12.5990071319678822 9.8455187689389803 14.3207988474397272 O
    constrain_relaxation .true.
    initial_charge        -2.000000
    initial_moment         0.000100
atom 12.5892524208226479 7.0604981418253869 14.3372950507385308 O
    constrain_relaxation .true.
    initial_charge        -2.000000
    initial_moment         0.000100
atom 1.2903024812678137 12.5950966266701627 14.3382005267429058 O
    constrain_relaxation .true.
    initial_charge        -2.000000
    initial_moment         0.000100
atom 12.6072183885667570 1.4527909105642114 14.3443133474124593 O
    constrain_relaxation .true.
    initial_charge        -2.000000
    initial_moment         0.000100
atom 6.9571090195582412 4.1849614098779666 14.3525123204523357 O
    constrain_relaxation .true.
    initial_charge        -2.000000
    initial_moment         0.000100
atom 1.3550712798357991 9.7207644582058776 14.3527617103139100 O
    constrain_relaxation .true.
    initial_charge        -2.000000
    initial_moment         0.000100
atom 1.2866694812995025 6.9487093308689731 14.3556498438058942 O
    constrain_relaxation .true.
    initial_charge        -2.000000
    initial_moment         0.000100
atom 12.5896548286358847 4.2256884079381303 14.3644256172943976 O
    constrain_relaxation .true.
    initial_charge        -2.000000
    initial_moment         0.000100
atom 6.9744066543315970 1.3842718131990421 14.3780085291791568 O
    constrain_relaxation .true.
    initial_charge        -2.000000
    initial_moment         0.000100
atom 6.9557026254283203 9.7627229888576732 14.3867418789734849 O
    constrain_relaxation .true.
    initial_charge        -2.000000
    initial_moment         0.000100
atom 6.9510339919009310 12.5841758850122591 14.3949622272869338 O
    constrain_relaxation .true.
    initial_charge        -2.000000
    initial_moment         0.000100
atom 1.3010049880244825 4.1728633652434866 14.4002112043073947 O
    constrain_relaxation .true.
    initial_charge        -2.000000
    initial_moment         0.000100
atom 15.6391490256832686 6.9776846400321721 14.4406350376077270 O
    constrain_relaxation .true.
    initial_charge        -2.000000
    initial_moment         0.000100
atom 4.3385222950289943 4.1620331411400500 14.4463463998879593 O
    constrain_relaxation .true.
    initial_charge        -2.000000
    initial_moment         0.000100
atom 9.9906319629427536 7.0417697421881442 14.4474250499015113 O
    constrain_relaxation .true.
    initial_charge        -2.000000
    initial_moment         0.000100
atom 9.9908453576567435 4.2269882038951367 14.4545887833119995 O
    constrain_relaxation .true.
    initial_charge        -2.000000
    initial_moment         0.000100
atom 15.6074548669327680 9.7709644050083480 14.4700358048031621 O
    constrain_relaxation .true.
    initial_charge        -2.000000
    initial_moment         0.000100
atom 4.3262169007085589 12.5768111512045859 14.4943569338801606 O
    constrain_relaxation .true.
    initial_charge        -2.000000
    initial_moment         0.000100
atom 15.6453765988653331 1.3909837161359742 14.4978926666045513 O
    constrain_relaxation .true.
    initial_charge        -2.000000
    initial_moment         0.000100
atom 15.5771625791132049 12.6408408960014746 14.5004368018387240 O
    constrain_relaxation .true.
    initial_charge        -2.000000
    initial_moment         0.000100
atom 4.3420954610487801 9.7736317052900841 14.5005233849756436 O
    constrain_relaxation .true.
    initial_charge        -2.000000
    initial_moment         0.000100
atom 6.9464290713133972 6.9630094586890454 14.5046501321184635 O
    constrain_relaxation .true.
    initial_charge        -2.000000
    initial_moment         0.000100
atom 4.3399622660173520 1.3821969617167909 14.5047280508492644 O
    constrain_relaxation .true.
    initial_charge        -2.000000
    initial_moment         0.000100
atom 4.3305461953622038 6.9740639350272877 14.5069247812498396 O
    constrain_relaxation .true.
    initial_charge        -2.000000
    initial_moment         0.000100
atom 15.6345109343300610 4.1856973198891456 14.5093017504233242 O
    constrain_relaxation .true.
    initial_charge        -2.000000
    initial_moment         0.000100
atom 9.9855816162272237 12.6185515910129968 14.5123527551601477 O
    constrain_relaxation .true.
    initial_charge        -2.000000
    initial_moment         0.000100
atom 9.9940184591949848 1.4253145609655080 14.5187371476639839 O
    constrain_relaxation .true.
    initial_charge        -2.000000
    initial_moment         0.000100
atom 1.3020897815506982 1.3580240854640051 14.5244350104476894 O
    constrain_relaxation .true.
    initial_charge        -2.000000
    initial_moment         0.000100
atom 9.9951175495230036 9.8330385843112751 14.5408520846324567 O
    constrain_relaxation .true.
    initial_charge        -2.000000
    initial_moment         0.000100
atom 16.9047775595465204 8.3418630317578231 16.3545024658778928 O
    initial_charge        -2.000000
    initial_moment         0.000100
atom 11.2918647964141918 0.0828327006902999 16.4146443525778949 O
    initial_charge        -2.000000
    initial_moment         0.000100
atom 5.6143161648218873 2.8260548856821415 16.3913866112079809 O
    initial_charge        -2.000000
    initial_moment         0.000100
atom 11.2469378979247523 5.6809146967468278 16.3964399840784232 O
    initial_charge        -2.000000
    initial_moment         0.000100
atom 16.8855310476044629 2.7804317838471988 16.4335718919002964 O
    initial_charge        -2.000000
    initial_moment         0.000100
atom 5.5430890457586566 5.5526952064135839 16.4447386144879957 O
    initial_charge        -2.000000
    initial_moment         0.000100
atom 5.6096387503520040 11.2065876401667168 16.4358293983962618 O
    initial_charge        -2.000000
    initial_moment         0.000100
atom 5.6325260867705857 0.0225031608227510 16.4143541252795906 O
    initial_charge        -2.000000
    initial_moment         0.000100
atom 5.5806366368608371 8.3927032444557490 16.4538915279038456 O
    initial_charge        -2.000000
    initial_moment         0.000100
atom 16.9113613438906114 11.1404050020564558 16.3675989545019505 O
    initial_charge        -2.000000
    initial_moment         0.000100
atom 16.8512806927761538 5.6111602966489471 16.3894498380349063 O
    initial_charge        -2.000000
    initial_moment         0.000100
atom 11.2615890052997187 8.4824833705733678 16.5536306762480940 O
    initial_charge        -2.000000
    initial_moment         0.000100
atom 11.2597582478453457 2.8824888739458356 16.3977956665915521 O
    initial_charge        -2.000000
    initial_moment         0.000100
atom 14.2287610866346732 5.7341415853292377 16.6612570536886473 O
    initial_charge        -2.000000
    initial_moment         0.000100
atom 14.2349552741754906 11.3011529768523928 16.6637312545488463 O
    initial_charge        -2.000000
    initial_moment         0.000100
atom 11.2863886314670552 11.2783383503164298 16.3949779733154024 O
    initial_charge        -2.000000
    initial_moment         0.000100
atom 8.5929378244756460 2.6898218587604736 16.6656602673065493 O
    initial_charge        -2.000000
    initial_moment         0.000100
atom 8.6053268720715010 11.0776888514257994 16.7267508346058840 O
    initial_charge        -2.000000
    initial_moment         0.000100
atom 2.9287765585797816 11.0341495803948710 16.6591286653942525 O
    initial_charge        -2.000000
    initial_moment         0.000100
atom 2.8989707635391255 8.2544195353968526 16.6595873090697069 O
    initial_charge        -2.000000
    initial_moment         0.000100
atom 2.9151920436033292 5.4568549385874512 16.6514375265759611 O
    initial_charge        -2.000000
    initial_moment         0.000100
atom 14.2884255957714625 8.4661658931572674 16.6889457819590916 O
    initial_charge        -2.000000
    initial_moment         0.000100
atom 8.5799911220748868 8.2757109490773804 16.6662454949903953 O
    initial_charge        -2.000000
    initial_moment         0.000100
atom 8.5783227333550887 5.4833601139807415 16.6534408322647813 O
    initial_charge        -2.000000
    initial_moment         0.000100
atom 16.8798788686419172 13.9375002256820490 16.3861238121441559 O
    initial_charge        -2.000000
    initial_moment         0.000100
atom 14.2094732809034188 2.9254624441054564 16.6633055317520267 O
    initial_charge        -2.000000
    initial_moment         0.000100
atom 14.2428514330456455 0.1380572549187761 16.6747598201705252 O
    initial_charge        -2.000000
    initial_moment         0.000100
atom 2.9149233789420674 13.8257452670971013 16.5606248077904716 O
    initial_charge        -2.000000
    initial_moment         0.000100
atom 8.6163462187423665 -0.1109722100684605 16.7089748379469469 O
    initial_charge        -2.000000
    initial_moment         0.000100
atom 2.9763294338992856 2.7509514279934013 16.5414119888074289 O
    initial_charge        -2.000000
    initial_moment         0.000100
atom 1.6984596726271874 1.2765903007641615 18.7899391958200823 O
    initial_charge        -2.000000
    initial_moment         0.000100
atom 4.1774873493692342 1.2422693296257621 18.7665129898343324 O
    initial_charge        -2.000000
    initial_moment         0.000100
atom 2.9390289437177697 -0.2344844275694437 20.2958750328744202 O
    initial_charge        -2.000000
    initial_moment         0.000100
atom 16.8403275176089977 2.7859433882091023 10.2323460806035786 Li
    constrain_relaxation .true.
    initial_charge         1.000000
    initial_moment         0.000100
atom 5.5721984938510909 5.5115148668403879 10.2766668180195531 Li
    constrain_relaxation .true.
    initial_charge         1.000000
    initial_moment         0.000100
atom 16.8557881045285143 13.9862496503194347 10.2756124066966219 Li
    constrain_relaxation .true.
    initial_charge         1.000000
    initial_moment         0.000100
atom 5.6373879269330613 8.2862964286449508 10.2969390996028594 Li
    constrain_relaxation .true.
    initial_charge         1.000000
    initial_moment         0.000100
atom 11.1872942434838656 11.2466970608710568 10.3400820343857767 Li
    constrain_relaxation .true.
    initial_charge         1.000000
    initial_moment         0.000100
atom 11.2632108544059548 8.4666991303708308 10.3606498439765158 Li
    constrain_relaxation .true.
    initial_charge         1.000000
    initial_moment         0.000100
atom 11.2228556708331517 5.6719251893072835 10.3674066958437852 Li
    constrain_relaxation .true.
    initial_charge         1.000000
    initial_moment         0.000100
atom 11.2128725162695009 0.0760152983777128 10.3696715677918583 Li
    constrain_relaxation .true.
    initial_charge         1.000000
    initial_moment         0.000100
atom 16.8668492510389783 5.5721244268108876 10.3707277327039478 Li
    constrain_relaxation .true.
    initial_charge         1.000000
    initial_moment         0.000100
atom 16.9198233862675878 8.3497195712155552 10.3317317096665260 Li
    constrain_relaxation .true.
    initial_charge         1.000000
    initial_moment         0.000100
atom 16.8655446387799337 11.1318862708872981 10.3432659026121634 Li
    constrain_relaxation .true.
    initial_charge         1.000000
    initial_moment         0.000100
atom 5.5801171396301559 2.7030467940870970 10.3897825135616788 Li
    constrain_relaxation .true.
    initial_charge         1.000000
    initial_moment         0.000100
atom 5.5582408859834080 13.8922926112156073 10.3899414150435856 Li
    constrain_relaxation .true.
    initial_charge         1.000000
    initial_moment         0.000100
atom 11.2093905401152352 2.8623529678115918 10.3900279185802695 Li
    constrain_relaxation .true.
    initial_charge         1.000000
    initial_moment         0.000100
atom 5.5805567799499531 11.0963722734551116 10.4104814727736503 Li
    constrain_relaxation .true.
    initial_charge         1.000000
    initial_moment         0.000100
atom 9.8791557473514899 9.8383851802349085 12.3728976349274102 Li
    constrain_relaxation .true.
    initial_charge         1.000000
    initial_moment         0.000100
atom 15.5226072004605875 9.7650206475476988 12.3792318357430684 Li
    constrain_relaxation .true.
    initial_charge         1.000000
    initial_moment         0.000100
atom 15.5202201502485675 6.9419176901372905 12.3957638664937146 Li
    constrain_relaxation .true.
    initial_charge         1.000000
    initial_moment         0.000100
atom 15.4778017314864336 12.6148155833425122 12.3971226495847606 Li
    constrain_relaxation .true.
    initial_charge         1.000000
    initial_moment         0.000100
atom 15.4848750324932318 4.2067788976168954 12.4166842120223446 Li
    constrain_relaxation .true.
    initial_charge         1.000000
    initial_moment         0.000100
atom 9.9069957268609787 7.0358322648508818 12.4172073522011353 Li
    constrain_relaxation .true.
    initial_charge         1.000000
    initial_moment         0.000100
atom 9.8875369693214115 4.2287782696178011 12.4262534403100631 Li
    constrain_relaxation .true.
    initial_charge         1.000000
    initial_moment         0.000100
atom 9.8453033888980439 12.5836126695812389 12.4266717737179455 Li
    constrain_relaxation .true.
    initial_charge         1.000000
    initial_moment         0.000100
atom 9.8873968772367000 1.4350959873265310 12.4456381168830443 Li
    constrain_relaxation .true.
    initial_charge         1.000000
    initial_moment         0.000100
atom 4.1958789982510645 6.9133856828393325 12.4498115236715883 Li
    constrain_relaxation .true.
    initial_charge         1.000000
    initial_moment         0.000100
atom 4.2263132356981137 12.5356643474613296 12.4504862493915329 Li
    constrain_relaxation .true.
    initial_charge         1.000000
    initial_moment         0.000100
atom 15.4845971409300738 1.4372906564403696 12.4542412370247817 Li
    constrain_relaxation .true.
    initial_charge         1.000000
    initial_moment         0.000100
atom 4.2366624374310220 1.3625907727889455 12.4547889940492915 Li
    constrain_relaxation .true.
    initial_charge         1.000000
    initial_moment         0.000100
atom 4.1938562368351819 4.1742421444696722 12.4606663019241850 Li
    constrain_relaxation .true.
    initial_charge         1.000000
    initial_moment         0.000100
atom 4.2286779930915550 9.7356146193553403 12.4700696762801631 Li
    constrain_relaxation .true.
    initial_charge         1.000000
    initial_moment         0.000100
atom 14.1375949348449179 8.3924373773518344 14.3778773656627283 Li
    constrain_relaxation .true.
    initial_charge         1.000000
    initial_moment         0.000100
atom 14.0896874375662975 11.2396195904383482 14.3928525434142092 Li
    constrain_relaxation .true.
    initial_charge         1.000000
    initial_moment         0.000100
atom 14.1265550971288665 2.8186979204644578 14.4066943847992519 Li
    constrain_relaxation .true.
    initial_charge         1.000000
    initial_moment         0.000100
atom 2.8414071992972469 11.1240796036180729 14.4147917602260058 Li
    constrain_relaxation .true.
    initial_charge         1.000000
    initial_moment         0.000100
atom 2.8145281087715515 8.3423889980249708 14.4183417013464510 Li
    constrain_relaxation .true.
    initial_charge         1.000000
    initial_moment         0.000100
atom 14.1081897097309827 5.6388892742458028 14.4302286944610945 Li
    constrain_relaxation .true.
    initial_charge         1.000000
    initial_moment         0.000100
atom 8.4795053664221953 0.0075593272760971 14.4348046147482520 Li
    constrain_relaxation .true.
    initial_charge         1.000000
    initial_moment         0.000100
atom 2.8333989466197811 5.5178307616853592 14.4385772339462513 Li
    constrain_relaxation .true.
    initial_charge         1.000000
    initial_moment         0.000100
atom 2.8332613525239676 2.7858550565694080 14.4406185400066178 Li
    constrain_relaxation .true.
    initial_charge         1.000000
    initial_moment         0.000100
atom 2.7992296374455656 13.9697224588985431 14.4319385796050632 Li
    constrain_relaxation .true.
    initial_charge         1.000000
    initial_moment         0.000100
atom 8.4389991875351207 11.1700624365063632 14.4514726084689489 Li
    constrain_relaxation .true.
    initial_charge         1.000000
    initial_moment         0.000100
atom 14.1150521459827232 0.0618901438212944 14.4605534037848056 Li
    constrain_relaxation .true.
    initial_charge         1.000000
    initial_moment         0.000100
atom 8.4710118163316679 5.6046229355574404 14.4663631848162009 Li
    constrain_relaxation .true.
    initial_charge         1.000000
    initial_moment         0.000100
atom 8.4643499193235510 2.8362371167307239 14.4706955161616655 Li
    constrain_relaxation .true.
    initial_charge         1.000000
    initial_moment         0.000100
atom 8.4385613420115675 8.3412323889096900 14.5051033604899722 Li
    constrain_relaxation .true.
    initial_charge         1.000000
    initial_moment         0.000100
atom 7.0803121258781836 4.1469121773948237 16.5160277077123681 Li
    initial_charge         1.000000
    initial_moment         0.000100
atom 7.0706542584886254 12.5758213148849318 16.5359018316262940 Li
    initial_charge         1.000000
    initial_moment         0.000100
atom 7.0919957523798063 1.3626809898436103 16.5343793138761335 Li
    initial_charge         1.000000
    initial_moment         0.000100
atom 7.0630792729507066 6.9525271302407852 16.5406421779379826 Li
    initial_charge         1.000000
    initial_moment         0.000100
atom 1.4805225236965387 9.6995831156182764 16.5016222301598923 Li
    initial_charge         1.000000
    initial_moment         0.000100
atom 7.0825040847318883 9.7661741164480667 16.5269769384271612 Li
    initial_charge         1.000000
    initial_moment         0.000100
atom 12.7445450157836611 4.2915753015262359 16.4524942816961293 Li
    initial_charge         1.000000
    initial_moment         0.000100
atom 12.7819252365692169 7.0737223614400024 16.5655525128299246 Li
    initial_charge         1.000000
    initial_moment         0.000100
atom 1.4636416341885807 1.3155813622812047 16.7969981690414230 Li
    initial_charge         1.000000
    initial_moment         0.000100
atom 12.7716866227428465 1.5033430920040884 16.5092313762715115 Li
    initial_charge         1.000000
    initial_moment         0.000100
atom 1.4470136686149333 6.9035884267302592 16.4957960515928015 Li
    initial_charge         1.000000
    initial_moment         0.000100
atom 12.7559682575847688 12.6926602940084443 16.5002441493568561 Li
    initial_charge         1.000000
    initial_moment         0.000100
atom 1.5028701606693564 4.0843463461581750 16.5253374447966905 Li
    initial_charge         1.000000
    initial_moment         0.000100
atom 12.7623296768952006 9.8868477854168688 16.5247292002870303 Li
    initial_charge         1.000000
    initial_moment         0.000100