 C  S  O  N  F                          
   1.00000000000000     
    20.0000000000000000    0.0000000000000000    0.0000000000000000
     0.0000000000000000   20.0000000000000000    0.0000000000000000
     0.0000000000000000    0.0000000000000000   20.0000000000000000
   C    S    O    N    F 
     2     2     4     1     6
Direct
  0.1394561899452031  0.2035965072146668  0.2134974414180613
  0.3509506837106529  0.2202731524481482  0.2215608856828723
  0.1667381798593831  0.2780169343112172  0.2643066765636889
  0.3091766599752050  0.2881689442533703  0.2716772089540734
  0.1630849529776605  0.3333862375280536  0.2180376537736337
  0.1211811769764492  0.2760979145691126  0.3204343388259285
  0.3093140891696945  0.3454104606964097  0.2276184954305256
  0.3493201813316401  0.2899898237712169  0.3317521264153115
  0.2388841251063327  0.2552939899860521  0.2885148916366288
  0.0745082765728669  0.2120125282554691  0.1941976860493903
  0.1429994463257757  0.1456752496479938  0.2489749842301101
  0.1766042621856366  0.1957926402078081  0.1571465923095105
  0.3206721219163932  0.2100554783554955  0.1616111775927820
  0.3519235960529413  0.1609219938559781  0.2547892014586839
  0.4157089239941595  0.2379288357489937  0.2090599020087995
 
  0.00000000E+00  0.00000000E+00  0.00000000E+00
  0.00000000E+00  0.00000000E+00  0.00000000E+00
  0.00000000E+00  0.00000000E+00  0.00000000E+00
  0.00000000E+00  0.00000000E+00  0.00000000E+00
  0.00000000E+00  0.00000000E+00  0.00000000E+00
  0.00000000E+00  0.00000000E+00  0.00000000E+00
  0.00000000E+00  0.00000000E+00  0.00000000E+00
  0.00000000E+00  0.00000000E+00  0.00000000E+00
  0.00000000E+00  0.00000000E+00  0.00000000E+00
  0.00000000E+00  0.00000000E+00  0.00000000E+00
  0.00000000E+00  0.00000000E+00  0.00000000E+00
  0.00000000E+00  0.00000000E+00  0.00000000E+00
  0.00000000E+00  0.00000000E+00  0.00000000E+00
  0.00000000E+00  0.00000000E+00  0.00000000E+00
  0.00000000E+00  0.00000000E+00  0.00000000E+00
