#=======================================================
# FHI-aims file: /nethome/he000026/phd/1-Phd-NMC-LLZO/5-LCO+TFSI-PFBS/5-fhi-aims/R2SCAN/07-TFSI/geometry.in
# Created using the Atomic Simulation Environment (ASE)
# Fri Sep  6 13:56:20 2024
#=======================================================
lattice_vector 20.0000000000000000 0.0000000000000000 0.0000000000000000 
lattice_vector 0.0000000000000000 20.0000000000000000 0.0000000000000000 
lattice_vector 0.0000000000000000 0.0000000000000000 20.0000000000000000 
atom 2.1794537130000000 4.1618768690000003 4.2939198400000000 C
    initial_charge         1.000000
    initial_moment         0.000100
atom 7.6044764630000010 4.5359349140000003 4.5260324780000003 C
    initial_charge         1.000000
    initial_moment         0.000100
atom 3.3132427099999999 5.2512649670000000 5.1282799189999997 S
    initial_charge         1.000000
    initial_moment         0.000100
atom 6.2653461330000004 5.4548141320000001 5.2545869669999998 S
    initial_charge         1.000000
    initial_moment         0.000100
atom 3.4397080849999999 6.5473387430000010 4.3448974190000005 O
    initial_charge        -2.000000
    initial_moment         0.000100
atom 2.8098263360000004 5.5418321380000002 6.4780453859999998 O
    initial_charge        -2.000000
    initial_moment         0.000100
atom 6.0373445339999998 6.6840064520000011 4.4820427130000002 O
    initial_charge        -2.000000
    initial_moment         0.000100
atom 6.6076235820000004 5.8036922420000003 6.6405361650000003 O
    initial_charge        -2.000000
    initial_moment         0.000100
atom 4.8459096910000001 4.5013422629999997 5.2407448209999998 N
    initial_charge         1.000000
    initial_moment         0.000100
atom 0.9694537540000001 4.7539213980000010 4.2051319119999997 F
    initial_charge         1.000000
    initial_moment         0.000100
atom 2.0671104460000000 3.0105316640000002 4.9898243740000003 F
    initial_charge         1.000000
    initial_moment         0.000100
atom 2.6419009770000002 3.8949566240000006 3.0540019520000006 F
    initial_charge         1.000000
    initial_moment         0.000100
atom 7.2900543439999996 4.2154489470000005 3.2528758170000005 F
    initial_charge         1.000000
    initial_moment         0.000100
atom 7.8139224799999996 3.4067770120000000 5.2357049050000004 F
    initial_charge         1.000000
    initial_moment         0.000100
atom 8.7250840739999997 5.2886754519999997 4.5369605790000005 F
    initial_charge         1.000000
    initial_moment         0.000100
